(set-info :smt-lib-version 2.6)
(set-logic ALL)
(set-info :source |
Benchmarks used in the followin paper:
Big proof engines as little proof engines: new results on rewrite-based satisfiability procedure
Alessandro Armando, Maria Paola Bonacina, Silvio Ranise, Stephan Schulz. 
PDPAR'05
http://www.ai.dist.unige.it/pdpar05/


|)
(set-info :category "crafted")
(set-info :status unsat)

(declare-sort Element 0)
(declare-fun a_238 () (Seq Element))
(declare-fun a_239 () (Seq Element))
(declare-fun a_241 () (Seq Element))
(declare-fun a_243 () (Seq Element))
(declare-fun a_245 () (Seq Element))
(declare-fun a_247 () (Seq Element))
(declare-fun a_249 () (Seq Element))
(declare-fun a_251 () (Seq Element))
(declare-fun a_253 () (Seq Element))
(declare-fun a_255 () (Seq Element))
(declare-fun a_257 () (Seq Element))
(declare-fun a_259 () (Seq Element))
(declare-fun a_260 () (Seq Element))
(declare-fun a_261 () (Seq Element))
(declare-fun a_263 () (Seq Element))
(declare-fun a_265 () (Seq Element))
(declare-fun a_267 () (Seq Element))
(declare-fun a_269 () (Seq Element))
(declare-fun e_237 () Element)
(declare-fun e_240 () Element)
(declare-fun e_242 () Element)
(declare-fun e_244 () Element)
(declare-fun e_246 () Element)
(declare-fun e_248 () Element)
(declare-fun e_250 () Element)
(declare-fun e_252 () Element)
(declare-fun e_254 () Element)
(declare-fun e_256 () Element)
(declare-fun e_258 () Element)
(declare-fun e_262 () Element)
(declare-fun e_264 () Element)
(declare-fun e_266 () Element)
(declare-fun e_268 () Element)
(declare-fun a1 () (Seq Element))
(declare-fun i0 () Int)
(declare-fun i1 () Int)
(declare-fun i3 () Int)
(declare-fun i4 () Int)
(declare-fun i5 () Int)
(assert (= a_238 (seq.update a1 i1 (seq.unit e_237))))
(assert (= a_239 (seq.update a_238 i1 (seq.unit e_237))))
(assert (= a_241 (seq.update a_239 i3 (seq.unit e_240))))
(assert (= a_243 (seq.update a_241 i5 (seq.unit e_242))))
(assert (= a_245 (seq.update a_243 i5 (seq.unit e_244))))
(assert (= a_247 (seq.update a_245 i0 (seq.unit e_246))))
(assert (= a_249 (seq.update a_247 i1 (seq.unit e_248))))
(assert (= a_251 (seq.update a_249 i5 (seq.unit e_250))))
(assert (= a_253 (seq.update a_251 i5 (seq.unit e_252))))
(assert (= a_255 (seq.update a_253 i1 (seq.unit e_254))))
(assert (= a_257 (seq.update a_255 i4 (seq.unit e_256))))
(assert (= a_259 (seq.update a_257 i5 (seq.unit e_258))))
(assert (= a_260 (seq.update a_247 i5 (seq.unit e_250))))
(assert (= a_261 (seq.update a_260 i1 (seq.unit e_248))))
(assert (= a_263 (seq.update a_261 i5 (seq.unit e_262))))
(assert (= a_265 (seq.update a_263 i1 (seq.unit e_264))))
(assert (= a_267 (seq.update a_265 i5 (seq.unit e_266))))
(assert (= a_269 (seq.update a_267 i4 (seq.unit e_268))))
(assert (= e_237 (seq.nth a1 i1)))
(assert (= e_240 (seq.nth a_239 i5)))
(assert (= e_242 (seq.nth a_239 i3)))
(assert (= e_244 (seq.nth a_243 i0)))
(assert (= e_246 (seq.nth a_243 i5)))
(assert (= e_248 (seq.nth a_247 i5)))
(assert (= e_250 (seq.nth a_247 i1)))
(assert (= e_252 (seq.nth a_251 i1)))
(assert (= e_254 (seq.nth a_251 i5)))
(assert (= e_256 (seq.nth a_255 i5)))
(assert (= e_258 (seq.nth a_255 i4)))
(assert (= e_262 (seq.nth a_261 i1)))
(assert (= e_264 (seq.nth a_261 i5)))
(assert (= e_266 (seq.nth a_265 i4)))
(assert (= e_268 (seq.nth a_265 i5)))
(assert (not (= a_259 a_269)))
(check-sat)
(exit)
